\ENCODING=ISO-8859-1
\Problem name: IloCplex

Maximize
 obj1: 50 X1 + 60 X2
Subject To
 c1: X1 + 2 X2 <= 8
 c2: X1 + X2 <= 5
 c3: 9 X1 + 4 X2 <= 36
Bounds
      X1 >= 0
      X2 >= 0
Generals
 X1  X2 
End
